* #variable= 54 #constraint= 3 
+1 x1 -1 x28 +2 x2 -2 x29 +4 x3 -4 x30 +8 x4 -8 x31 +16 x5 -16 x32 +32 x6 -32 x33 +64 x7 -64 x34 +128 x8 -128 x35 +256 x9 -256 x36 +512 x10 -512 x37 +1024 x11 -1024 x38 +2048 x12 -2048 x39 +4096 x13 -4096 x40 +8192 x14 -8192 x41 +16384 x15 -16384 x42 +32768 x16 -32768 x43 +65536 x17 -65536 x44 +131072 x18 -131072 x45 +262144 x19 -262144 x46 +524288 x20 -524288 x47 +1048576 x21 -1048576 x48 +2097152 x22 -2097152 x49 +4194304 x23 -4194304 x50 +8388608 x24 -8388608 x51 +16777216 x25 -16777216 x52 +33554432 x26 -33554432 x53 +67108864 x27 -67108864 x54 = 0 ;
-1 x14 -1 x41 >= -1; 
+1 x14 +1 x41 >= 1; 
